RAW/D/fspd-mid/SCA8-6.vrpspd_seed-6.out
971.8189	1.189	147.123
