RAW/D/fspd-mid/SCA8-6.vrpspd_seed-6.sol
Route #1: 17 46 19 28 50
Route #2: 35 2 6 32 20 13
Route #3: 5 10 18 48 45
Route #4: 1 47 12 44
Route #5: 23 30 9 33 43 25 11 37
Route #6: 7 4 40 42 16 38
Route #7: 15 24 3 27 36 14
Route #8: 49 41 29 22 31
Route #9: 8 34 21 39 26
Cost 9718189.000000